GLPSOL--GLPK LP/MIP Solver 5.0
Parameter(s) specified in the command line:
 --lp ../modeles/4_359.lp --log 4_359.log
Reading problem data from '../modeles/4_359.lp'...
1453 rows, 2880 columns, 10072 non-zeros
1436 integer variables, all of which are binary
4343 lines were read
GLPK Integer Optimizer 5.0
1453 rows, 2880 columns, 10072 non-zeros
1436 integer variables, all of which are binary
Preprocessing...
1416 constraint coefficient(s) were reduced
1453 rows, 2876 columns, 10068 non-zeros
1436 integer variables, all of which are binary
Scaling...
 A: min|aij| =  3.104e-05  max|aij| =  4.000e+00  ratio =  1.289e+05
GM: min|aij| =  5.278e-02  max|aij| =  1.895e+01  ratio =  3.590e+02
EQ: min|aij| =  2.786e-03  max|aij| =  1.000e+00  ratio =  3.590e+02
2N: min|aij| =  1.953e-03  max|aij| =  1.755e+00  ratio =  8.985e+02
Constructing initial basis...
Size of triangular part is 1453
Solving LP relaxation...
GLPK Simplex Optimizer 5.0
1453 rows, 2876 columns, 10068 non-zeros
      0: obj =   8.000000000e+00 inf =   1.950e+01 (9)
     83: obj =   4.999418063e-01 inf =   0.000e+00 (0)
*   277: obj =  -1.999883937e+00 inf =   3.712e-16 (0)
OPTIMAL LP SOLUTION FOUND
Integer optimization begins...
Long-step dual simplex will be used
+   277: mip =     not found yet >=              -inf        (1; 0)
+   688: >>>>>  -1.999883937e+00 >=  -1.999883937e+00 < 0.1% (409; 0)
+   688: mip =  -1.999883937e+00 >=     tree is empty   0.0% (0; 817)
INTEGER OPTIMAL SOLUTION FOUND
Time used:   0.9 secs
Memory used: 4.2 Mb (4419306 bytes)
